6069.0 331726.0 
6010.0 339391.0 
6159.0 327935.0 
6095.0 328629.0 
6050.0 331949.0 
6003.0 339754.0 
6049.0 333729.0 
6051.0 331765.0 
6032.0 338069.0 
6192.0 327450.0 
6100.0 328204.0 
6065.0 331758.0 
6071.0 331415.0 
6072.0 328768.0 
